NAME : gaussian_random156.8670.tour
COMMENT : Length = 8670
COMMENT : Found by LKH [Keld Helsgaun] Sun Jul  7 17:57:56 2024
TYPE : TOUR
DIMENSION : 156
TOUR_SECTION
1
20
32
151
128
121
127
133
74
87
138
143
34
19
67
91
6
73
69
61
12
98
112
62
36
3
47
59
92
111
78
131
49
8
93
97
39
40
96
10
43
134
123
100
86
104
68
156
154
55
66
44
132
71
7
31
145
14
116
60
149
122
25
94
75
153
65
26
88
136
50
48
141
56
117
126
125
152
144
58
29
57
63
46
148
95
76
129
83
120
2
80
101
150
9
22
110
82
70
137
139
115
4
118
135
35
102
114
30
21
84
37
106
77
142
99
113
119
130
5
23
147
52
11
81
53
15
146
38
85
72
155
124
103
107
18
45
27
79
108
13
17
109
90
64
41
51
33
16
42
54
89
105
24
140
28
-1
EOF
